NAME : portgen-11-718
COMMENT : portgen N=11, seed=718
TYPE : TSP
DIMENSION : 11
EDGE_WEIGHT_TYPE : EUC_2D
NODE_COORD_SECTION
1 697160 186122
2 420650 219527
3 431872 86733
4 784507 829494
5 941789 842733
6 409263 722119
7 828504 318961
8 465902 551727
9 366385 875748
10 366194 908701
11 801185 198715
